; benchmark generated from python API
(set-info :status unknown)
(declare-fun DISJ_W_S1_R_S1 () Bool)
(declare-fun DISJ_W_S2_R_S1 () Bool)
(declare-fun W_S2_V3 () Bool)
(declare-fun W_S1_V5 () Bool)
(declare-fun R_S2_V4 () Bool)
(declare-fun R_S1_V1 () Bool)
(declare-fun W_S2_V5 () Bool)
(declare-fun R_S2_V3 () Bool)
(declare-fun W_S1_V4 () Bool)
(declare-fun DISJ_W_S1_W_S2 () Bool)
(declare-fun DISJ_W_S1_R_S2 () Bool)
(declare-fun R_S1_V4 () Bool)
(declare-fun R_S1_V5 () Bool)
(declare-fun DISJ_W_S2_R_S2 () Bool)
(declare-fun R_E1_V4 () Bool)
(declare-fun R_E1_V5 () Bool)
(declare-fun W_S2_V2 () Bool)
(declare-fun W_S2_V1 () Bool)
(declare-fun R_S2_V5 () Bool)
(declare-fun R_S2_V2 () Bool)
(declare-fun R_S2_V1 () Bool)
(declare-fun R_S1_V2 () Bool)
(declare-fun R_S1_V3 () Bool)
(declare-fun R_E1_V2 () Bool)
(declare-fun DISJ_W_S2_R_E1 () Bool)
(declare-fun R_E1_V3 () Bool)
(declare-fun W_S2_V4 () Bool)
(declare-fun W_S1_V3 () Bool)
(declare-fun W_S1_V2 () Bool)
(declare-fun W_S1_V1 () Bool)
(declare-fun R_E1_V1 () Bool)
(declare-fun DISJ_W_S1_R_E1 () Bool)
(assert
 (let (($x1500 (not W_S2_V3)))
 (let (($x2438 (not W_S1_V5)))
 (let (($x2898 (not R_S2_V4)))
 (let (($x5780 (not R_S1_V1)))
 (let (($x8 (not (and $x5780 $x2898 $x2438 $x1500 DISJ_W_S2_R_S1 DISJ_W_S1_R_S1))))
 (let (($x478 (not W_S2_V5)))
 (let (($x4663 (not R_S2_V3)))
 (let (($x2291 (and $x4663 $x2898 $x478 DISJ_W_S2_R_S1)))
 (let (($x5894 (not $x2291)))
 (let (($x1824 (and $x2898 $x478 $x1500 DISJ_W_S2_R_S1)))
 (let (($x4911 (not $x1824)))
 (let (($x3113 (not (and $x5780 $x4663 (not W_S1_V4) $x478 DISJ_W_S2_R_S1 DISJ_W_S1_R_S1))))
 (let (($x3455 (not (and $x5780 DISJ_W_S2_R_S1 DISJ_W_S1_W_S2 DISJ_W_S1_R_S1))))
 (let (($x5995 (and DISJ_W_S1_R_S2 DISJ_W_S2_R_S1)))
 (let (($x541 (not $x5995)))
 (let (($x5101 (not W_S1_V4)))
 (let (($x3214 (not R_S1_V4)))
 (let (($x2101 (not R_S1_V5)))
 (let (($x5929 (not (and $x2101 $x3214 $x2438 $x5101 DISJ_W_S1_R_S2))))
 (let (($x4555 (not (and $x3214 $x2438 $x5101 $x478 DISJ_W_S1_R_S2))))
 (let (($x4883 (and DISJ_W_S2_R_S1 DISJ_W_S2_R_S2)))
 (let (($x4876 (not $x4883)))
 (let (($x5358 (not (and W_S1_V4 R_E1_V4))))
 (let (($x3255 (not (and W_S1_V5 R_E1_V5))))
 (let (($x928 (forall ((V3_0 Int) )(forall ((V2_0 Int) )(forall ((V5_0 Int) )(forall ((V4_0 Int) )(forall ((MW_S1_V1 Bool) )(forall ((MW_S1_V3 Bool) )(forall ((MW_S1_V2 Bool) )(forall ((MW_S1_V5 Bool) )(forall ((MW_S1_V4 Bool) )(forall ((MW_S2_V1 Bool) )(forall ((MW_S2_V3 Bool) )(forall ((MW_S2_V2 Bool) )(forall ((MW_S2_V5 Bool) )(forall ((MW_S2_V4 Bool) )(forall ((S1_V1_!6442 Int) )(forall ((S1_V1_!6447 Int) )(forall ((S1_V1_!6464 Int) )(forall ((S1_V1_!6474 Int) )(forall ((S2_V5_!6456 Int) )(forall ((S2_V5_!6461 Int) )(forall ((S2_V5_!6472 Int) )(forall ((S2_V5_!6482 Int) )(forall ((S1_V3_!6443 Int) )(forall ((S1_V3_!6448 Int) )(forall ((S1_V3_!6465 Int) )(forall ((S1_V3_!6475 Int) )(forall ((S1_V2_!6444 Int) )(forall ((S1_V2_!6449 Int) )(forall ((S1_V2_!6466 Int) )(forall ((S1_V2_!6476 Int) )(forall ((E1_!6441 Int) )(forall ((E1_!6452 Int) )(forall ((E1_!6463 Int) )(forall ((S2_V4_!6457 Int) )(forall ((S2_V4_!6462 Int) )(forall ((S2_V4_!6473 Int) )(forall ((S2_V4_!6483 Int) )(forall ((S1_V5_!6445 Int) )(forall ((S1_V5_!6450 Int) )(forall ((S1_V5_!6467 Int) )(forall ((S1_V5_!6477 Int) )(forall ((S2_V1_!6453 Int) )(forall ((S2_V1_!6458 Int) )(forall ((S2_V1_!6469 Int) )(forall ((S2_V1_!6479 Int) )(forall ((S1_V4_!6446 Int) )(forall ((S1_V4_!6451 Int) )(forall ((S1_V4_!6468 Int) )(forall ((S1_V4_!6478 Int) )(forall ((S2_V2_!6455 Int) )(forall ((S2_V2_!6460 Int) )(forall ((S2_V2_!6471 Int) )(forall ((S2_V2_!6481 Int) )(forall ((S2_V3_!6454 Int) )(forall ((S2_V3_!6459 Int) )(forall ((S2_V3_!6470 Int) )(forall ((S2_V3_!6480 Int) )(let (($x1750 (= (ite MW_S2_V4 S2_V4_!6462 (ite MW_S1_V4 S1_V4_!6451 V4_0)) (ite MW_S2_V4 S2_V4_!6483 (ite MW_S1_V4 S1_V4_!6478 (ite MW_S2_V4 S2_V4_!6473 (ite MW_S1_V4 S1_V4_!6468 V4_0)))))))
 (let (($x4015 (= (ite MW_S2_V5 S2_V5_!6461 (ite MW_S1_V5 S1_V5_!6450 V5_0)) (ite MW_S2_V5 S2_V5_!6482 (ite MW_S1_V5 S1_V5_!6477 (ite MW_S2_V5 S2_V5_!6472 (ite MW_S1_V5 S1_V5_!6467 V5_0)))))))
 (let ((?x2196 (ite MW_S1_V2 S1_V2_!6466 V2_0)))
 (let ((?x2414 (ite MW_S2_V2 S2_V2_!6471 ?x2196)))
 (let ((?x4827 (ite MW_S1_V2 S1_V2_!6476 ?x2414)))
 (let ((?x5233 (ite MW_S2_V2 S2_V2_!6481 ?x4827)))
 (let ((?x4673 (ite MW_S1_V2 S1_V2_!6449 V2_0)))
 (let ((?x4691 (ite MW_S2_V2 S2_V2_!6460 ?x4673)))
 (let (($x505 (= (ite MW_S2_V3 S2_V3_!6459 (ite MW_S1_V3 S1_V3_!6448 V3_0)) (ite MW_S2_V3 S2_V3_!6480 (ite MW_S1_V3 S1_V3_!6475 (ite MW_S2_V3 S2_V3_!6470 (ite MW_S1_V3 S1_V3_!6465 V3_0)))))))
 (let ((?x5959 (ite MW_S1_V1 S1_V1_!6464 E1_!6463)))
 (let ((?x2210 (ite MW_S2_V1 S2_V1_!6469 ?x5959)))
 (let ((?x5215 (+ 1 ?x2210)))
 (let ((?x773 (ite MW_S1_V1 S1_V1_!6474 ?x5215)))
 (let ((?x3110 (ite MW_S2_V1 S2_V1_!6479 ?x773)))
 (let ((?x1148 (ite MW_S2_V1 S2_V1_!6453 E1_!6452)))
 (let ((?x725 (+ 1 ?x1148)))
 (let ((?x1109 (ite MW_S2_V1 S2_V1_!6458 ?x725)))
 (let (($x404 (>= (ite MW_S1_V1 S1_V1_!6447 (+ 1 (ite MW_S1_V1 S1_V1_!6442 E1_!6441))) (+ (- 1) ?x4673))))
 (let (($x1370 (and (not (<= V2_0 E1_!6441)) (not (<= (ite MW_S1_V2 S1_V2_!6444 V2_0) (+ 1 (ite MW_S1_V1 S1_V1_!6442 E1_!6441)))) $x404 (not (<= ?x4673 E1_!6452)) (not (<= (ite MW_S2_V2 S2_V2_!6455 ?x4673) ?x725)) (>= ?x1109 (+ (- 1) ?x4691)) (not (<= V2_0 E1_!6463)) (not (<= ?x2414 ?x5215)) (>= ?x3110 (+ (- 1) ?x5233)))))
 (let (($x1065 (= S2_V3_!6470 S2_V3_!6480)))
 (let ((?x1123 (ite MW_S1_V4 S1_V4_!6468 V4_0)))
 (let ((?x5912 (ite MW_S2_V4 S2_V4_!6473 ?x1123)))
 (let ((?x2695 (ite MW_S1_V4 S1_V4_!6478 ?x5912)))
 (let (($x2898 (not R_S2_V4)))
 (let ((?x1504 (ite MW_S1_V5 S1_V5_!6467 V5_0)))
 (let ((?x53 (ite MW_S2_V5 S2_V5_!6472 ?x1504)))
 (let ((?x2306 (ite MW_S1_V5 S1_V5_!6477 ?x53)))
 (let (($x3791 (not R_S2_V5)))
 (let ((?x6044 (ite MW_S1_V3 S1_V3_!6465 V3_0)))
 (let ((?x4895 (ite MW_S2_V3 S2_V3_!6470 ?x6044)))
 (let ((?x4065 (ite MW_S1_V3 S1_V3_!6475 ?x4895)))
 (let (($x4663 (not R_S2_V3)))
 (let (($x1586 (and (or (not R_S2_V1) (= ?x5959 ?x773)) (or $x4663 (= ?x6044 ?x4065)) (or (not R_S2_V2) (= ?x2196 ?x4827)) (or $x3791 (= ?x1504 ?x2306)) (or $x2898 (= ?x1123 ?x2695)))))
 (let (($x1412 (not $x1586)))
 (let (($x147 (= S2_V3_!6470 S2_V3_!6454)))
 (let (($x4801 (and (or (not R_S2_V1) (= ?x5959 E1_!6452)) (or $x4663 (= ?x6044 (ite MW_S1_V3 S1_V3_!6448 V3_0))) (or (not R_S2_V2) (= ?x2196 ?x4673)) (or $x3791 (= ?x1504 (ite MW_S1_V5 S1_V5_!6450 V5_0))) (or $x2898 (= ?x1123 (ite MW_S1_V4 S1_V4_!6451 V4_0))))))
 (let (($x2154 (not $x4801)))
 (let (($x3850 (= S2_V3_!6459 S2_V3_!6480)))
 (let (($x2111 (and (or (not R_S2_V1) (= ?x1148 (+ (- 1) ?x773))) (or $x4663 (= (ite MW_S2_V3 S2_V3_!6454 (ite MW_S1_V3 S1_V3_!6448 V3_0)) ?x4065)) (or (not R_S2_V2) (= (ite MW_S2_V2 S2_V2_!6455 ?x4673) ?x4827)) (or $x3791 (= (ite MW_S2_V5 S2_V5_!6456 (ite MW_S1_V5 S1_V5_!6450 V5_0)) ?x2306)) (or $x2898 (= (ite MW_S2_V4 S2_V4_!6457 (ite MW_S1_V4 S1_V4_!6451 V4_0)) ?x2695)))))
 (let (($x5866 (not $x2111)))
 (let (($x352 (= S2_V3_!6459 S2_V3_!6470)))
 (let (($x2469 (and (or (not R_S2_V1) (= ?x1148 (+ (- 1) ?x5959))) (or $x4663 (= (ite MW_S2_V3 S2_V3_!6454 (ite MW_S1_V3 S1_V3_!6448 V3_0)) ?x6044)) (or (not R_S2_V2) (= (ite MW_S2_V2 S2_V2_!6455 ?x4673) ?x2196)) (or $x3791 (= (ite MW_S2_V5 S2_V5_!6456 (ite MW_S1_V5 S1_V5_!6450 V5_0)) ?x1504)) (or $x2898 (= (ite MW_S2_V4 S2_V4_!6457 (ite MW_S1_V4 S1_V4_!6451 V4_0)) ?x1123)))))
 (let (($x27 (not $x2469)))
 (let (($x2341 (= S2_V3_!6459 S2_V3_!6454)))
 (let (($x2021 (or $x2898 (= (ite MW_S2_V4 S2_V4_!6457 (ite MW_S1_V4 S1_V4_!6451 V4_0)) (ite MW_S1_V4 S1_V4_!6451 V4_0)))))
 (let (($x1249 (or $x3791 (= (ite MW_S2_V5 S2_V5_!6456 (ite MW_S1_V5 S1_V5_!6450 V5_0)) (ite MW_S1_V5 S1_V5_!6450 V5_0)))))
 (let (($x3563 (or $x4663 (= (ite MW_S2_V3 S2_V3_!6454 (ite MW_S1_V3 S1_V3_!6448 V3_0)) (ite MW_S1_V3 S1_V3_!6448 V3_0)))))
 (let (($x1792 (and (or (not R_S2_V1) (= ?x1148 (+ (- 1) E1_!6452))) $x3563 (or (not R_S2_V2) (= (ite MW_S2_V2 S2_V2_!6455 ?x4673) ?x4673)) $x1249 $x2021)))
 (let (($x4414 (not $x1792)))
 (let (($x4270 (= S2_V3_!6454 S2_V3_!6480)))
 (let (($x3842 (and (or (not R_S2_V1) (= E1_!6452 ?x773)) (or $x4663 (= (ite MW_S1_V3 S1_V3_!6448 V3_0) ?x4065)) (or (not R_S2_V2) (= ?x4673 ?x4827)) (or $x3791 (= (ite MW_S1_V5 S1_V5_!6450 V5_0) ?x2306)) (or $x2898 (= (ite MW_S1_V4 S1_V4_!6451 V4_0) ?x2695)))))
 (let (($x2129 (not $x3842)))
 (let (($x287 (= S2_V2_!6481 S2_V2_!6460)))
 (let (($x3427 (and (or (not R_S2_V1) (= ?x773 ?x725)) (or $x4663 (= ?x4065 (ite MW_S2_V3 S2_V3_!6454 (ite MW_S1_V3 S1_V3_!6448 V3_0)))) (or (not R_S2_V2) (= ?x4827 (ite MW_S2_V2 S2_V2_!6455 ?x4673))) (or $x3791 (= ?x2306 (ite MW_S2_V5 S2_V5_!6456 (ite MW_S1_V5 S1_V5_!6450 V5_0)))) (or $x2898 (= ?x2695 (ite MW_S2_V4 S2_V4_!6457 (ite MW_S1_V4 S1_V4_!6451 V4_0)))))))
 (let (($x5777 (= S2_V2_!6481 S2_V2_!6455)))
 (let (($x1420 (and (or (not R_S2_V1) (= ?x773 E1_!6452)) (or $x4663 (= ?x4065 (ite MW_S1_V3 S1_V3_!6448 V3_0))) (or (not R_S2_V2) (= ?x4827 ?x4673)) (or $x3791 (= ?x2306 (ite MW_S1_V5 S1_V5_!6450 V5_0))) (or $x2898 (= ?x2695 (ite MW_S1_V4 S1_V4_!6451 V4_0))))))
 (let (($x2428 (not $x1420)))
 (let (($x2517 (= S2_V2_!6471 S2_V2_!6460)))
 (let (($x1786 (and (or (not R_S2_V1) (= ?x5959 ?x725)) (or $x4663 (= ?x6044 (ite MW_S2_V3 S2_V3_!6454 (ite MW_S1_V3 S1_V3_!6448 V3_0)))) (or (not R_S2_V2) (= ?x2196 (ite MW_S2_V2 S2_V2_!6455 ?x4673))) (or $x3791 (= ?x1504 (ite MW_S2_V5 S2_V5_!6456 (ite MW_S1_V5 S1_V5_!6450 V5_0)))) (or $x2898 (= ?x1123 (ite MW_S2_V4 S2_V4_!6457 (ite MW_S1_V4 S1_V4_!6451 V4_0)))))))
 (let (($x5815 (and (or (not R_S1_V1) (= ?x2210 (ite MW_S1_V1 S1_V1_!6442 E1_!6441))) (or (not R_S1_V3) (= ?x4895 (ite MW_S1_V3 S1_V3_!6443 V3_0))) (or (not R_S1_V2) (= ?x2414 (ite MW_S1_V2 S1_V2_!6444 V2_0))) (or (not R_S1_V5) (= ?x53 (ite MW_S1_V5 S1_V5_!6445 V5_0))) (or (not R_S1_V4) (= ?x5912 (ite MW_S1_V4 S1_V4_!6446 V4_0))))))
 (let (($x3685 (not $x5815)))
 (let (($x3214 (not R_S1_V4)))
 (let (($x4686 (or $x3214 (= V4_0 ?x5912))))
 (let (($x2101 (not R_S1_V5)))
 (let (($x1917 (or $x2101 (= V5_0 ?x53))))
 (let (($x228 (not R_S1_V2)))
 (let (($x2857 (or $x228 (= V2_0 ?x2414))))
 (let (($x1206 (not R_S1_V3)))
 (let (($x5208 (or $x1206 (= V3_0 ?x4895))))
 (let (($x5793 (not (and (or (not R_S1_V1) (= E1_!6463 ?x5215)) $x5208 $x2857 $x1917 $x4686))))
 (let (($x2268 (or $x3214 (= V4_0 (ite MW_S1_V4 S1_V4_!6446 V4_0)))))
 (let (($x792 (or $x2101 (= V5_0 (ite MW_S1_V5 S1_V5_!6445 V5_0)))))
 (let (($x3055 (or $x228 (= V2_0 (ite MW_S1_V2 S1_V2_!6444 V2_0)))))
 (let (($x3929 (or $x1206 (= V3_0 (ite MW_S1_V3 S1_V3_!6443 V3_0)))))
 (let (($x1193 (and (or (not R_S1_V1) (= E1_!6463 (+ 1 (ite MW_S1_V1 S1_V1_!6442 E1_!6441)))) $x3929 $x3055 $x792 $x2268)))
 (let (($x2132 (not $x1193)))
 (let (($x401 (not (and (or (not R_S1_V1) (= E1_!6441 ?x5215)) $x5208 $x2857 $x1917 $x4686))))
 (let (($x5947 (and (or (not R_S1_V1) (= E1_!6441 (+ 1 (ite MW_S1_V1 S1_V1_!6442 E1_!6441)))) $x3929 $x3055 $x792 $x2268)))
 (let (($x3237 (not $x5947)))
 (let (($x856 (or $x3214 (= ?x5912 V4_0))))
 (let (($x2710 (or $x2101 (= ?x53 V5_0))))
 (let (($x42 (or $x228 (= ?x2414 V2_0))))
 (let (($x3986 (or $x1206 (= ?x4895 V3_0))))
 (let (($x2357 (and (or (not R_S1_V1) (= ?x2210 (+ (- 1) E1_!6463))) $x3986 $x42 $x2710 $x856)))
 (let (($x2984 (not $x2357)))
 (let (($x835 (and (or (not R_S1_V1) (= ?x2210 (+ (- 1) E1_!6441))) $x3986 $x42 $x2710 $x856)))
 (let (($x5789 (not $x835)))
 (let (($x2099 (= S2_V4_!6483 S2_V4_!6473)))
 (let (($x2508 (and (or (not R_S2_V1) (= ?x773 ?x5959)) (or $x4663 (= ?x4065 ?x6044)) (or (not R_S2_V2) (= ?x4827 ?x2196)) (or $x3791 (= ?x2306 ?x1504)) (or $x2898 (= ?x2695 ?x1123)))))
 (let (($x2701 (= E1_!6452 E1_!6463)))
 (let (($x69 (and (or (not R_E1_V2) (= ?x4673 V2_0)) (or (not R_E1_V5) (= (ite MW_S1_V5 S1_V5_!6450 V5_0) V5_0)) (or (not R_E1_V4) (= (ite MW_S1_V4 S1_V4_!6451 V4_0) V4_0)))))
 (let (($x4637 (= E1_!6441 E1_!6463)))
 (let (($x590 (and (or (not R_E1_V2) (= V2_0 ?x4673)) (or (not R_E1_V5) (= V5_0 (ite MW_S1_V5 S1_V5_!6450 V5_0))) (or (not R_E1_V4) (= V4_0 (ite MW_S1_V4 S1_V4_!6451 V4_0))))))
 (let (($x2878 (= S1_V2_!6449 S1_V2_!6476)))
 (let (($x1427 (and (or (not R_S1_V1) (= (ite MW_S1_V1 S1_V1_!6442 E1_!6441) ?x2210)) (or $x1206 (= (ite MW_S1_V3 S1_V3_!6443 V3_0) ?x4895)) (or $x228 (= (ite MW_S1_V2 S1_V2_!6444 V2_0) ?x2414)) (or $x2101 (= (ite MW_S1_V5 S1_V5_!6445 V5_0) ?x53)) (or $x3214 (= (ite MW_S1_V4 S1_V4_!6446 V4_0) ?x5912)))))
 (let (($x1875 (not $x1427)))
 (let (($x625 (or $x3214 (= (ite MW_S1_V4 S1_V4_!6446 V4_0) V4_0))))
 (let (($x4625 (or $x2101 (= (ite MW_S1_V5 S1_V5_!6445 V5_0) V5_0))))
 (let (($x3104 (or $x228 (= (ite MW_S1_V2 S1_V2_!6444 V2_0) V2_0))))
 (let (($x30 (or $x1206 (= (ite MW_S1_V3 S1_V3_!6443 V3_0) V3_0))))
 (let (($x2663 (and (or (not R_S1_V1) (= (ite MW_S1_V1 S1_V1_!6442 E1_!6441) (+ (- 1) E1_!6463))) $x30 $x3104 $x4625 $x625)))
 (let (($x3575 (not $x2663)))
 (let (($x5318 (and (or (not R_S1_V1) (= (ite MW_S1_V1 S1_V1_!6442 E1_!6441) (+ (- 1) E1_!6441))) $x30 $x3104 $x4625 $x625)))
 (let (($x5156 (not $x5318)))
 (let (($x4661 (and (or (not R_S2_V1) (= E1_!6452 ?x5959)) (or $x4663 (= (ite MW_S1_V3 S1_V3_!6448 V3_0) ?x6044)) (or (not R_S2_V2) (= ?x4673 ?x2196)) (or $x3791 (= (ite MW_S1_V5 S1_V5_!6450 V5_0) ?x1504)) (or $x2898 (= (ite MW_S1_V4 S1_V4_!6451 V4_0) ?x1123)))))
 (let (($x5042 (and (or (not (or (not R_S1_V1) $x4637)) (= S1_V1_!6442 S1_V1_!6464)) (or $x5156 (= S1_V1_!6447 S1_V1_!6442)) (or $x3575 (= S1_V1_!6447 S1_V1_!6464)) (or $x5789 (= S1_V1_!6474 S1_V1_!6442)) (or $x3685 (= S1_V1_!6474 S1_V1_!6447)) (or $x2984 (= S1_V1_!6474 S1_V1_!6464)) (or (not $x4661) (= S2_V5_!6456 S2_V5_!6472)) (or $x2129 (= S2_V5_!6456 S2_V5_!6482)) (or $x4414 (= S2_V5_!6461 S2_V5_!6456)) (or $x27 (= S2_V5_!6461 S2_V5_!6472)) (or $x5866 (= S2_V5_!6461 S2_V5_!6482)) (or $x1412 (= S2_V5_!6472 S2_V5_!6482)) (or (not (or (not R_S1_V1) $x4637)) (= S1_V3_!6443 S1_V3_!6465)) (or $x401 (= S1_V3_!6443 S1_V3_!6475)) (or $x5156 (= S1_V3_!6448 S1_V3_!6443)) (or $x3575 (= S1_V3_!6448 S1_V3_!6465)) (or $x1875 (= S1_V3_!6448 S1_V3_!6475)) (or $x5793 (= S1_V3_!6465 S1_V3_!6475)) (or (not (or (not R_S1_V1) $x4637)) (= S1_V2_!6444 S1_V2_!6466)) (or $x5156 (= S1_V2_!6449 S1_V2_!6444)) (or $x3575 (= S1_V2_!6449 S1_V2_!6466)) (or $x1875 $x2878) (or $x5789 (= S1_V2_!6476 S1_V2_!6444)) (or $x2984 (= S1_V2_!6476 S1_V2_!6466)) (or (not $x590) (= E1_!6441 E1_!6452)) $x4637 (or (not $x69) $x2701) (or $x4414 (= S2_V4_!6462 S2_V4_!6457)) (or $x27 (= S2_V4_!6462 S2_V4_!6473)) (or $x5866 (= S2_V4_!6462 S2_V4_!6483)) (or $x2154 (= S2_V4_!6473 S2_V4_!6457)) (or $x2428 (= S2_V4_!6483 S2_V4_!6457)) (or (not $x2508) $x2099) (or $x3237 (= S1_V5_!6445 S1_V5_!6450)) (or (not (or (not R_S1_V1) (= E1_!6463 E1_!6441))) (= S1_V5_!6467 S1_V5_!6445)) (or $x2132 (= S1_V5_!6467 S1_V5_!6450)) (or $x5789 (= S1_V5_!6477 S1_V5_!6445)) (or $x3685 (= S1_V5_!6477 S1_V5_!6450)) (or $x2984 (= S1_V5_!6477 S1_V5_!6467)) (or $x4414 (= S2_V1_!6458 S2_V1_!6453)) (or $x27 (= S2_V1_!6458 S2_V1_!6469)) (or $x5866 (= S2_V1_!6458 S2_V1_!6479)) (or $x2154 (= S2_V1_!6469 S2_V1_!6453)) (or $x1412 (= S2_V1_!6469 S2_V1_!6479)) (or $x2428 (= S2_V1_!6479 S2_V1_!6453)) (or $x3237 (= S1_V4_!6446 S1_V4_!6451)) (or $x401 (= S1_V4_!6446 S1_V4_!6478)) (or (not (or (not R_S1_V1) (= E1_!6463 E1_!6441))) (= S1_V4_!6468 S1_V4_!6446)) (or $x2132 (= S1_V4_!6468 S1_V4_!6451)) (or $x5793 (= S1_V4_!6468 S1_V4_!6478)) (or $x3685 (= S1_V4_!6478 S1_V4_!6451)) (or $x4414 (= S2_V2_!6460 S2_V2_!6455)) (or $x2154 (= S2_V2_!6471 S2_V2_!6455)) (or (not $x1786) $x2517) (or $x1412 (= S2_V2_!6471 S2_V2_!6481)) (or $x2428 $x5777) (or (not $x3427) $x287) (or $x2129 $x4270) (or $x4414 $x2341) (or $x27 $x352) (or $x5866 $x3850) (or $x2154 $x147) (or $x1412 $x1065) (not MW_S1_V1) (not MW_S1_V2) (or (not MW_S1_V5) W_S1_V5) (or (not MW_S1_V4) W_S1_V4) (or (not MW_S2_V1) W_S2_V1) (or (not MW_S2_V3) W_S2_V3) (or (not MW_S2_V2) W_S2_V2) (or (not MW_S2_V5) W_S2_V5))))
 (or (not $x5042) (not $x1370) (and (= ?x1109 ?x3110) $x505 (= ?x4691 ?x5233) $x4015 $x1750)))))))))))))))))))))))))))))))))))))))))))))))))))))))))))))))))))))))))))))))))))))))))))))))))))))))))))))
 )
 )
 )
 )
 )
 )
 )
 )
 )
 )
 )
 )
 )
 )
 )
 )
 )
 )
 )
 )
 )
 )
 )
 )
 )
 )
 )
 )
 )
 )
 )
 )
 )
 )
 )
 )
 )
 )
 )
 )
 )
 )
 )
 )
 )
 )
 )
 )
 )
 )
 )
 )
 )
 )
 )
 )
 ))
 (let (($x3379 (not (or (and W_S2_V2 R_E1_V2) (and W_S2_V5 R_E1_V5) R_E1_V4))))
 (let (($x5024 (= DISJ_W_S2_R_E1 $x3379)))
 (let (($x5092 (and W_S2_V5 R_S2_V5)))
 (let (($x2372 (and W_S2_V2 R_S2_V2)))
 (let (($x320 (and W_S2_V3 R_S2_V3)))
 (let (($x554 (and W_S2_V1 R_S2_V1)))
 (let (($x3106 (= DISJ_W_S2_R_S2 (not (or $x554 $x320 $x2372 $x5092 R_S2_V4)))))
 (let (($x5363 (and W_S2_V5 R_S1_V5)))
 (let (($x3493 (and W_S2_V2 R_S1_V2)))
 (let (($x2005 (and W_S2_V3 R_S1_V3)))
 (let (($x851 (and W_S2_V1 R_S1_V1)))
 (let (($x32 (= DISJ_W_S2_R_S1 (not (or $x851 $x2005 $x3493 $x5363 R_S1_V4)))))
 (let (($x2070 (= DISJ_W_S1_W_S2 (not (or W_S2_V3 (and W_S1_V5 W_S2_V5) W_S1_V4)))))
 (let (($x2287 (not R_E1_V3)))
 (let (($x3264 (not (or R_S2_V3 (and W_S1_V5 R_S2_V5) (and W_S1_V4 R_S2_V4)))))
 (let (($x882 (= DISJ_W_S1_R_S2 $x3264)))
 (let (($x1270 (not (or R_S1_V3 (and W_S1_V5 R_S1_V5) (and W_S1_V4 R_S1_V4)))))
 (let (($x800 (= DISJ_W_S1_R_S1 $x1270)))
 (let (($x1634 (not W_S2_V2)))
 (let (($x3772 (not R_S2_V1)))
 (let (($x211 (and $x3772 $x2898 $x1634 $x1500 DISJ_W_S2_R_S1)))
 (let (($x3791 (not R_S2_V5)))
 (let (($x2032 (and $x3791 $x2898 $x1500 DISJ_W_S2_R_S1)))
 (let (($x657 (and $x2898 $x2438 $x1500 DISJ_W_S2_R_S1)))
 (let (($x5717 (and $x3772 $x3791 $x1634 $x1500 DISJ_W_S2_R_S1)))
 (let (($x5283 (and $x3791 $x5101 $x1500 DISJ_W_S2_R_S1)))
 (let (($x3664 (and $x3772 $x1634 $x478 $x1500 DISJ_W_S2_R_S1)))
 (let (($x2379 (and DISJ_W_S1_W_S2 DISJ_W_S2_R_S1)))
 (let (($x636 (and $x3772 $x4663 $x3791 $x1634 DISJ_W_S2_R_S1)))
 (let (($x1345 (and $x3772 $x4663 $x2898 $x1634 DISJ_W_S2_R_S1)))
 (let (($x2321 (and $x3772 $x2898 $x1634 $x478 DISJ_W_S2_R_S1)))
 (let (($x2770 (and $x3772 $x3791 $x2898 $x1634 DISJ_W_S2_R_S1)))
 (let (($x1156 (and $x3772 $x4663 $x1634 $x478 DISJ_W_S2_R_S1)))
 (let (($x1784 (and (not W_S2_V1) $x1634)))
 (let (($x791 (and $x4663 $x5101 $x478 DISJ_W_S2_R_S1)))
 (let (($x5135 (and $x1634 DISJ_W_S2_R_S2)))
 (let (($x959 (or $x4883 $x5135 $x5995 $x791 $x1824 $x2291 $x1784 $x1156 $x2770 $x2321 $x1345 $x636 $x2379 $x3664 $x5283 $x5717 $x657 $x2032 $x211)))
 (let (($x5037 (and $x5780 DISJ_W_S1_R_S1)))
 (let (($x4992 (and $x1634 DISJ_W_S2_R_S1 DISJ_W_S1_R_S1)))
 (let (($x768 (or $x4992 $x1784 $x5037)))
 (let (($x1067 (not W_S1_V2)))
 (let (($x1791 (not W_S1_V1)))
 (let (($x1593 (not R_E1_V1)))
 (let (($x2058 (and DISJ_W_S1_R_E1 $x1593 $x1791 $x1067 $x768 $x959 W_S1_V3 W_S2_V4 $x800 $x882 $x2287 $x2070 $x32 $x3106 $x5024 $x928 $x3255 $x5358)))
 (and $x2058 $x4876 $x4555 $x5929 $x541 $x3455 $x3113 $x4911 $x5894 $x8)))))))))))))))))))))))))))))))))))))))))))))))))))))))))))))))))))))))
(check-sat)
